# Solution for model VPM2
# Objective value = 13.75
X010101. 0.1
X010102. 0
X010103. 0
X010104. 0
X010105. 0
X010106. 0.2
X010201. 0
X010202. 0
X010203. 0
X010204. 0
X010205. 0
X010206. 0
X010301. 0.9
X010302. 0.9
X010303. 0.9
X010304. 0
X010305. 0
X010306. 0.9
X010401. 0
X010402. 0
X010403. 0
X010404. 0
X010405. 0
X010406. 0
X020101. 0
X020102. 4.7499999999999937e-01
X020103. 0.774999999999987
X020104. 6.2499999999999456e-01
X020105. 0
X020106. 0
X020201. 0
X020202. 0
X020203. 0
X020204. 0
X020205. 0
X020206. 0
X020301. 0
X020302. 0
X020303. 0
X020304. 0
X020305. 0
X020306. 0
X020401. 0
X020402. 0
X020403. 0
X020404. 0
X020405. 0.875
X020406. 0
X030101. 0
X030102. 0
X030103. 0
X030104. 0
X030105. 9.7499999999999987e-01
X030106. 0
X030201. 0
X030202. 0
X030203. 0
X030204. 0
X030205. 0.35
X030206. 0
X030301. 0
X030302. 0
X030303. 0
X030304. 0.9
X030305. 0
X030306. 0
X030401. 0
X030402. 0
X030403. 0
X030404. 0
X030405. 0
X030406. 0
X040101. 0
X040102. 0
X040103. 0
X040104. 0
X040105. 0
X040106. 0.5
X040201. 0
X040202. 0
X040203. 0
X040204. 0
X040205. 5.1874999999999050e-01
X040206. 0.95
X040301. 0
X040302. 0
X040303. 0
X040304. 0
X040305. 0
X040306. 0
X040401. 0
X040402. 0
X040403. 0
X040404. 0
X040405. 0
X040406. 0.875
X050101. 0
X050102. 0
X050103. 0
X050104. 3.2500000000000540e-01
X050105. 0
X050106. 2.2499999999999584e-01
X050201. 0
X050202. 0
X050203. 0
X050204. 0.95
X050205. 0
X050206. 0
X050301. 0
X050302. 0
X050303. 0
X050304. 0
X050305. 0
X050306. 0
X050401. 0
X050402. 0
X050403. 0
X050404. 0
X050405. 0
X050406. 0
X060101. 0.75
X060102. 0
X060103. 0
X060104. 0
X060105. 0
X060106. 0
X060201. 0.95
X060202. 0.4
X060203. 0
X060204. 0
X060205. 0
X060206. 0
X060301. 0
X060302. 0
X060303. 0
X060304. 0
X060305. 0
X060306. 0
X060401. 0
X060402. 0
X060403. 0
X060404. 0
X060405. 0
X060406. 0
X070101. 0
X070102. 0.45
X070103. 0
X070104. 0
X070105. 0
X070106. 0
X070201. 0
X070202. 0
X070203. 0.95
X070204. 0
X070205. 0
X070206. 0
X070301. 0
X070302. 0
X070303. 0
X070304. 0
X070305. 0
X070306. 0
X070401. 0
X070402. 0
X070403. 0
X070404. 0
X070405. 0
X070406. 0
Y010101. 1
Y010102. 0
Y010103. 0
Y010104. 0
Y010105. 0
Y010106. 1
Y010201. 0
Y010202. 0
Y010203. 0
Y010204. 0
Y010205. 0
Y010206. 0
Y010301. 1
Y010302. 1
Y010303. 1
Y010304. 0
Y010305. 0
Y010306. 1
Y010401. 0
Y010402. 0
Y010403. 0
Y010404. 0
Y010405. 0
Y010406. 0
Y020101. 0
Y020102. 1
Y020103. 1
Y020104. 1
Y020105. 0
Y020106. 0
Y020201. 0
Y020202. 0
Y020203. 0
Y020204. 0
Y020205. 0
Y020206. 0
Y020301. 0
Y020302. 0
Y020303. 0
Y020304. 0
Y020305. 0
Y020306. 0
Y020401. 0
Y020402. 0
Y020403. 0
Y020404. 0
Y020405. 1
Y020406. 0
Y030101. 0
Y030102. 0
Y030103. 0
Y030104. 0
Y030105. 1
Y030106. 0
Y030201. 0
Y030202. 0
Y030203. 0
Y030204. 0
Y030205. 1
Y030206. 0
Y030301. 0
Y030302. 0
Y030303. 0
Y030304. 1
Y030305. 0
Y030306. 0
Y030401. 0
Y030402. 0
Y030403. 0
Y030404. 0
Y030405. 0
Y030406. 0
Y040101. 0
Y040102. 0
Y040103. 0
Y040104. 0
Y040105. 0
Y040106. 1
Y040201. 0
Y040202. 0
Y040203. 0
Y040204. 0
Y040205. 1
Y040206. 1
Y040301. 0
Y040302. 0
Y040303. 0
Y040304. 0
Y040305. 0
Y040306. 0
Y040401. 0
Y040402. 0
Y040403. 0
Y040404. 0
Y040405. 0
Y040406. 1
Y050101. 0
Y050102. 0
Y050103. 0
Y050104. 1
Y050105. 0
Y050106. 1
Y050201. 0
Y050202. 0
Y050203. 0
Y050204. 1
Y050205. 0
Y050206. 0
Y050301. 0
Y050302. 0
Y050303. 0
Y050304. 0
Y050305. 0
Y050306. 0
Y050401. 0
Y050402. 0
Y050403. 0
Y050404. 0
Y050405. 0
Y050406. 0
Y060101. 1
Y060102. 0
Y060103. 0
Y060104. 0
Y060105. 0
Y060106. 0
Y060201. 1
Y060202. 1
Y060203. 0
Y060204. 0
Y060205. 0
Y060206. 0
Y060301. 0
Y060302. 0
Y060303. 0
Y060304. 0
Y060305. 0
Y060306. 0
Y060401. 0
Y060402. 0
Y060403. 0
Y060404. 0
Y060405. 0
Y060406. 0
Y070101. 0
Y070102. 1
Y070103. 0
Y070104. 0
Y070105. 0
Y070106. 0
Y070201. 0
Y070202. 0
Y070203. 1
Y070204. 0
Y070205. 0
Y070206. 0
Y070301. 0
Y070302. 0
Y070303. 0
Y070304. 0
Y070305. 0
Y070306. 0
Y070401. 0
Y070402. 0
Y070403. 0
Y070404. 0
Y070405. 0
Y070406. 0
S01.01.. 180
S01.02.. 240
S01.03.. 300
S01.04.. 300
S01.05.. 300
S01.06.. 100
S02.01.. 400
S02.02.. 290
S02.03.. 400
S02.04.. 250
S02.05.. 200
S02.06.. 200
S03.01.. 400
S03.02.. 400
S03.03.. 400
S03.04.. 370
S03.05.. 300
S03.06.. 300
S04.01.. 500
S04.02.. 500
S04.03.. 500
S04.04.. 500
S04.05.. 407.5
S04.06.. 400
S05.01.. 500
S05.02.. 500
S05.03.. 500
S05.04.. 255
S05.05.. 255
S05.06.. 200
S06.01.. 300
S06.02.. 300
S06.03.. 300
S06.04.. 300
S06.05.. 300
S06.06.. 300
S07.01.. 300
S07.02.. 225
S07.03.. 200
S07.04.. 200
S07.05.. 200
S07.06.. 200
